c Reachability CNF generated by lab1_parser_jkhare.cpp
c File: ./verilog_src/stoplight2.v
c Unroll k = 5
c Target at time k = 01000
p cnf 575 1495
5 8 0
-5 -8 0
1 9 0
-1 -9 0
2 10 0
-2 -10 0
-10 -9 11 0
10 -11 0
9 -11 0
-11 -3 12 0
11 -12 0
3 -12 0
-12 -8 13 0
12 -13 0
8 -13 0
13 14 0
-13 -14 0
4 15 0
-4 -15 0
6 16 0
-6 -16 0
-16 -15 17 0
16 -17 0
15 -17 0
-17 -12 18 0
17 -18 0
12 -18 0
18 19 0
-18 -19 0
-6 -5 20 0
6 -20 0
5 -20 0
-20 -12 21 0
20 -21 0
12 -21 0
21 22 0
-21 -22 0
-22 -19 23 0
22 -23 0
19 -23 0
-23 -14 24 0
23 -24 0
14 -24 0
3 25 0
-3 -25 0
-11 -25 26 0
11 -26 0
25 -26 0
-5 -4 27 0
5 -27 0
4 -27 0
-27 -6 28 0
27 -28 0
6 -28 0
-28 -26 29 0
28 -29 0
26 -29 0
29 30 0
-29 -30 0
-25 -10 31 0
25 -31 0
10 -31 0
-27 -16 32 0
27 -32 0
16 -32 0
-32 -31 33 0
32 -33 0
31 -33 0
33 34 0
-33 -34 0
-34 -30 35 0
34 -35 0
30 -35 0
-3 -10 36 0
3 -36 0
10 -36 0
-36 -32 37 0
36 -37 0
32 -37 0
37 38 0
-37 -38 0
-25 -1 39 0
25 -39 0
1 -39 0
-8 -15 40 0
8 -40 0
15 -40 0
-40 -39 41 0
40 -41 0
39 -41 0
41 42 0
-41 -42 0
-10 -1 43 0
10 -43 0
1 -43 0
43 44 0
-43 -44 0
-44 -42 45 0
44 -45 0
42 -45 0
-45 -38 46 0
45 -46 0
38 -46 0
-46 -35 47 0
46 -47 0
35 -47 0
-47 -24 48 0
47 -48 0
24 -48 0
48 49 0
-48 -49 0
-2 -9 50 0
2 -50 0
9 -50 0
-15 -25 51 0
15 -51 0
25 -51 0
-51 -50 52 0
51 -52 0
50 -52 0
-5 -15 53 0
5 -53 0
15 -53 0
-53 -26 54 0
53 -54 0
26 -54 0
54 55 0
-54 -55 0
-26 -8 56 0
26 -56 0
8 -56 0
56 57 0
-56 -57 0
-57 -55 58 0
57 -58 0
55 -58 0
58 59 0
-58 -59 0
-6 -8 60 0
6 -60 0
8 -60 0
-60 -43 61 0
60 -61 0
43 -61 0
61 62 0
-61 -62 0
-5 -1 63 0
5 -63 0
1 -63 0
-63 -16 64 0
63 -64 0
16 -64 0
64 65 0
-64 -65 0
-65 -62 66 0
65 -66 0
62 -66 0
-66 -38 67 0
66 -67 0
38 -67 0
-67 -22 68 0
67 -68 0
22 -68 0
68 69 0
-68 -69 0
-4 -3 70 0
4 -70 0
3 -70 0
-70 -64 71 0
70 -71 0
64 -71 0
71 72 0
-71 -72 0
-50 -8 73 0
50 -73 0
8 -73 0
73 74 0
-73 -74 0
-8 -2 75 0
8 -75 0
2 -75 0
-75 -6 76 0
75 -76 0
6 -76 0
76 77 0
-76 -77 0
-77 -74 78 0
77 -78 0
74 -78 0
-78 -72 79 0
78 -79 0
72 -79 0
79 80 0
-79 -80 0
-15 -3 81 0
15 -81 0
3 -81 0
-16 -5 82 0
16 -82 0
5 -82 0
-82 -81 83 0
82 -83 0
81 -83 0
83 84 0
-83 -84 0
-8 -3 85 0
8 -85 0
3 -85 0
-85 -6 86 0
85 -86 0
6 -86 0
86 87 0
-86 -87 0
-87 -84 88 0
87 -88 0
84 -88 0
-88 -14 89 0
88 -89 0
14 -89 0
-89 -35 90 0
89 -90 0
35 -90 0
90 91 0
-90 -91 0
-63 -17 92 0
63 -92 0
17 -92 0
92 93 0
-92 -93 0
-3 -9 94 0
3 -94 0
9 -94 0
-94 -60 95 0
94 -95 0
60 -95 0
95 96 0
-95 -96 0
-96 -93 97 0
96 -97 0
93 -97 0
-8 -4 98 0
8 -98 0
4 -98 0
-98 -6 99 0
98 -99 0
6 -99 0
99 100 0
-99 -100 0
-4 -9 101 0
4 -101 0
9 -101 0
-101 -8 102 0
101 -102 0
8 -102 0
102 103 0
-102 -103 0
-103 -100 104 0
103 -104 0
100 -104 0
-104 -97 105 0
104 -105 0
97 -105 0
-55 -30 106 0
55 -106 0
30 -106 0
-106 -105 107 0
106 -107 0
105 -107 0
107 108 0
-107 -108 0
-74 -62 109 0
74 -109 0
62 -109 0
-103 -87 110 0
103 -110 0
87 -110 0
-110 -109 111 0
110 -111 0
109 -111 0
-57 -19 112 0
57 -112 0
19 -112 0
-112 -111 113 0
112 -113 0
111 -113 0
113 114 0
-113 -114 0
-115 69 0
115 -69 0
-116 80 0
116 -80 0
-117 91 0
117 -91 0
-118 108 0
118 -108 0
-119 114 0
119 -114 0
119 122 0
-119 -122 0
115 123 0
-115 -123 0
116 124 0
-116 -124 0
-124 -123 125 0
124 -125 0
123 -125 0
-125 -117 126 0
125 -126 0
117 -126 0
-126 -122 127 0
126 -127 0
122 -127 0
127 128 0
-127 -128 0
118 129 0
-118 -129 0
120 130 0
-120 -130 0
-130 -129 131 0
130 -131 0
129 -131 0
-131 -126 132 0
131 -132 0
126 -132 0
132 133 0
-132 -133 0
-120 -119 134 0
120 -134 0
119 -134 0
-134 -126 135 0
134 -135 0
126 -135 0
135 136 0
-135 -136 0
-136 -133 137 0
136 -137 0
133 -137 0
-137 -128 138 0
137 -138 0
128 -138 0
117 139 0
-117 -139 0
-125 -139 140 0
125 -140 0
139 -140 0
-119 -118 141 0
119 -141 0
118 -141 0
-141 -120 142 0
141 -142 0
120 -142 0
-142 -140 143 0
142 -143 0
140 -143 0
143 144 0
-143 -144 0
-139 -124 145 0
139 -145 0
124 -145 0
-141 -130 146 0
141 -146 0
130 -146 0
-146 -145 147 0
146 -147 0
145 -147 0
147 148 0
-147 -148 0
-148 -144 149 0
148 -149 0
144 -149 0
-117 -124 150 0
117 -150 0
124 -150 0
-150 -146 151 0
150 -151 0
146 -151 0
151 152 0
-151 -152 0
-139 -115 153 0
139 -153 0
115 -153 0
-122 -129 154 0
122 -154 0
129 -154 0
-154 -153 155 0
154 -155 0
153 -155 0
155 156 0
-155 -156 0
-124 -115 157 0
124 -157 0
115 -157 0
157 158 0
-157 -158 0
-158 -156 159 0
158 -159 0
156 -159 0
-159 -152 160 0
159 -160 0
152 -160 0
-160 -149 161 0
160 -161 0
149 -161 0
-161 -138 162 0
161 -162 0
138 -162 0
162 163 0
-162 -163 0
-116 -123 164 0
116 -164 0
123 -164 0
-129 -139 165 0
129 -165 0
139 -165 0
-165 -164 166 0
165 -166 0
164 -166 0
-119 -129 167 0
119 -167 0
129 -167 0
-167 -140 168 0
167 -168 0
140 -168 0
168 169 0
-168 -169 0
-140 -122 170 0
140 -170 0
122 -170 0
170 171 0
-170 -171 0
-171 -169 172 0
171 -172 0
169 -172 0
172 173 0
-172 -173 0
-120 -122 174 0
120 -174 0
122 -174 0
-174 -157 175 0
174 -175 0
157 -175 0
175 176 0
-175 -176 0
-119 -115 177 0
119 -177 0
115 -177 0
-177 -130 178 0
177 -178 0
130 -178 0
178 179 0
-178 -179 0
-179 -176 180 0
179 -180 0
176 -180 0
-180 -152 181 0
180 -181 0
152 -181 0
-181 -136 182 0
181 -182 0
136 -182 0
182 183 0
-182 -183 0
-118 -117 184 0
118 -184 0
117 -184 0
-184 -178 185 0
184 -185 0
178 -185 0
185 186 0
-185 -186 0
-164 -122 187 0
164 -187 0
122 -187 0
187 188 0
-187 -188 0
-122 -116 189 0
122 -189 0
116 -189 0
-189 -120 190 0
189 -190 0
120 -190 0
190 191 0
-190 -191 0
-191 -188 192 0
191 -192 0
188 -192 0
-192 -186 193 0
192 -193 0
186 -193 0
193 194 0
-193 -194 0
-129 -117 195 0
129 -195 0
117 -195 0
-130 -119 196 0
130 -196 0
119 -196 0
-196 -195 197 0
196 -197 0
195 -197 0
197 198 0
-197 -198 0
-122 -117 199 0
122 -199 0
117 -199 0
-199 -120 200 0
199 -200 0
120 -200 0
200 201 0
-200 -201 0
-201 -198 202 0
201 -202 0
198 -202 0
-202 -128 203 0
202 -203 0
128 -203 0
-203 -149 204 0
203 -204 0
149 -204 0
204 205 0
-204 -205 0
-177 -131 206 0
177 -206 0
131 -206 0
206 207 0
-206 -207 0
-117 -123 208 0
117 -208 0
123 -208 0
-208 -174 209 0
208 -209 0
174 -209 0
209 210 0
-209 -210 0
-210 -207 211 0
210 -211 0
207 -211 0
-122 -118 212 0
122 -212 0
118 -212 0
-212 -120 213 0
212 -213 0
120 -213 0
213 214 0
-213 -214 0
-118 -123 215 0
118 -215 0
123 -215 0
-215 -122 216 0
215 -216 0
122 -216 0
216 217 0
-216 -217 0
-217 -214 218 0
217 -218 0
214 -218 0
-218 -211 219 0
218 -219 0
211 -219 0
-169 -144 220 0
169 -220 0
144 -220 0
-220 -219 221 0
220 -221 0
219 -221 0
221 222 0
-221 -222 0
-188 -176 223 0
188 -223 0
176 -223 0
-217 -201 224 0
217 -224 0
201 -224 0
-224 -223 225 0
224 -225 0
223 -225 0
-171 -133 226 0
171 -226 0
133 -226 0
-226 -225 227 0
226 -227 0
225 -227 0
227 228 0
-227 -228 0
-229 183 0
229 -183 0
-230 194 0
230 -194 0
-231 205 0
231 -205 0
-232 222 0
232 -222 0
-233 228 0
233 -228 0
233 236 0
-233 -236 0
229 237 0
-229 -237 0
230 238 0
-230 -238 0
-238 -237 239 0
238 -239 0
237 -239 0
-239 -231 240 0
239 -240 0
231 -240 0
-240 -236 241 0
240 -241 0
236 -241 0
241 242 0
-241 -242 0
232 243 0
-232 -243 0
234 244 0
-234 -244 0
-244 -243 245 0
244 -245 0
243 -245 0
-245 -240 246 0
245 -246 0
240 -246 0
246 247 0
-246 -247 0
-234 -233 248 0
234 -248 0
233 -248 0
-248 -240 249 0
248 -249 0
240 -249 0
249 250 0
-249 -250 0
-250 -247 251 0
250 -251 0
247 -251 0
-251 -242 252 0
251 -252 0
242 -252 0
231 253 0
-231 -253 0
-239 -253 254 0
239 -254 0
253 -254 0
-233 -232 255 0
233 -255 0
232 -255 0
-255 -234 256 0
255 -256 0
234 -256 0
-256 -254 257 0
256 -257 0
254 -257 0
257 258 0
-257 -258 0
-253 -238 259 0
253 -259 0
238 -259 0
-255 -244 260 0
255 -260 0
244 -260 0
-260 -259 261 0
260 -261 0
259 -261 0
261 262 0
-261 -262 0
-262 -258 263 0
262 -263 0
258 -263 0
-231 -238 264 0
231 -264 0
238 -264 0
-264 -260 265 0
264 -265 0
260 -265 0
265 266 0
-265 -266 0
-253 -229 267 0
253 -267 0
229 -267 0
-236 -243 268 0
236 -268 0
243 -268 0
-268 -267 269 0
268 -269 0
267 -269 0
269 270 0
-269 -270 0
-238 -229 271 0
238 -271 0
229 -271 0
271 272 0
-271 -272 0
-272 -270 273 0
272 -273 0
270 -273 0
-273 -266 274 0
273 -274 0
266 -274 0
-274 -263 275 0
274 -275 0
263 -275 0
-275 -252 276 0
275 -276 0
252 -276 0
276 277 0
-276 -277 0
-230 -237 278 0
230 -278 0
237 -278 0
-243 -253 279 0
243 -279 0
253 -279 0
-279 -278 280 0
279 -280 0
278 -280 0
-233 -243 281 0
233 -281 0
243 -281 0
-281 -254 282 0
281 -282 0
254 -282 0
282 283 0
-282 -283 0
-254 -236 284 0
254 -284 0
236 -284 0
284 285 0
-284 -285 0
-285 -283 286 0
285 -286 0
283 -286 0
286 287 0
-286 -287 0
-234 -236 288 0
234 -288 0
236 -288 0
-288 -271 289 0
288 -289 0
271 -289 0
289 290 0
-289 -290 0
-233 -229 291 0
233 -291 0
229 -291 0
-291 -244 292 0
291 -292 0
244 -292 0
292 293 0
-292 -293 0
-293 -290 294 0
293 -294 0
290 -294 0
-294 -266 295 0
294 -295 0
266 -295 0
-295 -250 296 0
295 -296 0
250 -296 0
296 297 0
-296 -297 0
-232 -231 298 0
232 -298 0
231 -298 0
-298 -292 299 0
298 -299 0
292 -299 0
299 300 0
-299 -300 0
-278 -236 301 0
278 -301 0
236 -301 0
301 302 0
-301 -302 0
-236 -230 303 0
236 -303 0
230 -303 0
-303 -234 304 0
303 -304 0
234 -304 0
304 305 0
-304 -305 0
-305 -302 306 0
305 -306 0
302 -306 0
-306 -300 307 0
306 -307 0
300 -307 0
307 308 0
-307 -308 0
-243 -231 309 0
243 -309 0
231 -309 0
-244 -233 310 0
244 -310 0
233 -310 0
-310 -309 311 0
310 -311 0
309 -311 0
311 312 0
-311 -312 0
-236 -231 313 0
236 -313 0
231 -313 0
-313 -234 314 0
313 -314 0
234 -314 0
314 315 0
-314 -315 0
-315 -312 316 0
315 -316 0
312 -316 0
-316 -242 317 0
316 -317 0
242 -317 0
-317 -263 318 0
317 -318 0
263 -318 0
318 319 0
-318 -319 0
-291 -245 320 0
291 -320 0
245 -320 0
320 321 0
-320 -321 0
-231 -237 322 0
231 -322 0
237 -322 0
-322 -288 323 0
322 -323 0
288 -323 0
323 324 0
-323 -324 0
-324 -321 325 0
324 -325 0
321 -325 0
-236 -232 326 0
236 -326 0
232 -326 0
-326 -234 327 0
326 -327 0
234 -327 0
327 328 0
-327 -328 0
-232 -237 329 0
232 -329 0
237 -329 0
-329 -236 330 0
329 -330 0
236 -330 0
330 331 0
-330 -331 0
-331 -328 332 0
331 -332 0
328 -332 0
-332 -325 333 0
332 -333 0
325 -333 0
-283 -258 334 0
283 -334 0
258 -334 0
-334 -333 335 0
334 -335 0
333 -335 0
335 336 0
-335 -336 0
-302 -290 337 0
302 -337 0
290 -337 0
-331 -315 338 0
331 -338 0
315 -338 0
-338 -337 339 0
338 -339 0
337 -339 0
-285 -247 340 0
285 -340 0
247 -340 0
-340 -339 341 0
340 -341 0
339 -341 0
341 342 0
-341 -342 0
-343 297 0
343 -297 0
-344 308 0
344 -308 0
-345 319 0
345 -319 0
-346 336 0
346 -336 0
-347 342 0
347 -342 0
347 350 0
-347 -350 0
343 351 0
-343 -351 0
344 352 0
-344 -352 0
-352 -351 353 0
352 -353 0
351 -353 0
-353 -345 354 0
353 -354 0
345 -354 0
-354 -350 355 0
354 -355 0
350 -355 0
355 356 0
-355 -356 0
346 357 0
-346 -357 0
348 358 0
-348 -358 0
-358 -357 359 0
358 -359 0
357 -359 0
-359 -354 360 0
359 -360 0
354 -360 0
360 361 0
-360 -361 0
-348 -347 362 0
348 -362 0
347 -362 0
-362 -354 363 0
362 -363 0
354 -363 0
363 364 0
-363 -364 0
-364 -361 365 0
364 -365 0
361 -365 0
-365 -356 366 0
365 -366 0
356 -366 0
345 367 0
-345 -367 0
-353 -367 368 0
353 -368 0
367 -368 0
-347 -346 369 0
347 -369 0
346 -369 0
-369 -348 370 0
369 -370 0
348 -370 0
-370 -368 371 0
370 -371 0
368 -371 0
371 372 0
-371 -372 0
-367 -352 373 0
367 -373 0
352 -373 0
-369 -358 374 0
369 -374 0
358 -374 0
-374 -373 375 0
374 -375 0
373 -375 0
375 376 0
-375 -376 0
-376 -372 377 0
376 -377 0
372 -377 0
-345 -352 378 0
345 -378 0
352 -378 0
-378 -374 379 0
378 -379 0
374 -379 0
379 380 0
-379 -380 0
-367 -343 381 0
367 -381 0
343 -381 0
-350 -357 382 0
350 -382 0
357 -382 0
-382 -381 383 0
382 -383 0
381 -383 0
383 384 0
-383 -384 0
-352 -343 385 0
352 -385 0
343 -385 0
385 386 0
-385 -386 0
-386 -384 387 0
386 -387 0
384 -387 0
-387 -380 388 0
387 -388 0
380 -388 0
-388 -377 389 0
388 -389 0
377 -389 0
-389 -366 390 0
389 -390 0
366 -390 0
390 391 0
-390 -391 0
-344 -351 392 0
344 -392 0
351 -392 0
-357 -367 393 0
357 -393 0
367 -393 0
-393 -392 394 0
393 -394 0
392 -394 0
-347 -357 395 0
347 -395 0
357 -395 0
-395 -368 396 0
395 -396 0
368 -396 0
396 397 0
-396 -397 0
-368 -350 398 0
368 -398 0
350 -398 0
398 399 0
-398 -399 0
-399 -397 400 0
399 -400 0
397 -400 0
400 401 0
-400 -401 0
-348 -350 402 0
348 -402 0
350 -402 0
-402 -385 403 0
402 -403 0
385 -403 0
403 404 0
-403 -404 0
-347 -343 405 0
347 -405 0
343 -405 0
-405 -358 406 0
405 -406 0
358 -406 0
406 407 0
-406 -407 0
-407 -404 408 0
407 -408 0
404 -408 0
-408 -380 409 0
408 -409 0
380 -409 0
-409 -364 410 0
409 -410 0
364 -410 0
410 411 0
-410 -411 0
-346 -345 412 0
346 -412 0
345 -412 0
-412 -406 413 0
412 -413 0
406 -413 0
413 414 0
-413 -414 0
-392 -350 415 0
392 -415 0
350 -415 0
415 416 0
-415 -416 0
-350 -344 417 0
350 -417 0
344 -417 0
-417 -348 418 0
417 -418 0
348 -418 0
418 419 0
-418 -419 0
-419 -416 420 0
419 -420 0
416 -420 0
-420 -414 421 0
420 -421 0
414 -421 0
421 422 0
-421 -422 0
-357 -345 423 0
357 -423 0
345 -423 0
-358 -347 424 0
358 -424 0
347 -424 0
-424 -423 425 0
424 -425 0
423 -425 0
425 426 0
-425 -426 0
-350 -345 427 0
350 -427 0
345 -427 0
-427 -348 428 0
427 -428 0
348 -428 0
428 429 0
-428 -429 0
-429 -426 430 0
429 -430 0
426 -430 0
-430 -356 431 0
430 -431 0
356 -431 0
-431 -377 432 0
431 -432 0
377 -432 0
432 433 0
-432 -433 0
-405 -359 434 0
405 -434 0
359 -434 0
434 435 0
-434 -435 0
-345 -351 436 0
345 -436 0
351 -436 0
-436 -402 437 0
436 -437 0
402 -437 0
437 438 0
-437 -438 0
-438 -435 439 0
438 -439 0
435 -439 0
-350 -346 440 0
350 -440 0
346 -440 0
-440 -348 441 0
440 -441 0
348 -441 0
441 442 0
-441 -442 0
-346 -351 443 0
346 -443 0
351 -443 0
-443 -350 444 0
443 -444 0
350 -444 0
444 445 0
-444 -445 0
-445 -442 446 0
445 -446 0
442 -446 0
-446 -439 447 0
446 -447 0
439 -447 0
-397 -372 448 0
397 -448 0
372 -448 0
-448 -447 449 0
448 -449 0
447 -449 0
449 450 0
-449 -450 0
-416 -404 451 0
416 -451 0
404 -451 0
-445 -429 452 0
445 -452 0
429 -452 0
-452 -451 453 0
452 -453 0
451 -453 0
-399 -361 454 0
399 -454 0
361 -454 0
-454 -453 455 0
454 -455 0
453 -455 0
455 456 0
-455 -456 0
-457 411 0
457 -411 0
-458 422 0
458 -422 0
-459 433 0
459 -433 0
-460 450 0
460 -450 0
-461 456 0
461 -456 0
461 464 0
-461 -464 0
457 465 0
-457 -465 0
458 466 0
-458 -466 0
-466 -465 467 0
466 -467 0
465 -467 0
-467 -459 468 0
467 -468 0
459 -468 0
-468 -464 469 0
468 -469 0
464 -469 0
469 470 0
-469 -470 0
460 471 0
-460 -471 0
462 472 0
-462 -472 0
-472 -471 473 0
472 -473 0
471 -473 0
-473 -468 474 0
473 -474 0
468 -474 0
474 475 0
-474 -475 0
-462 -461 476 0
462 -476 0
461 -476 0
-476 -468 477 0
476 -477 0
468 -477 0
477 478 0
-477 -478 0
-478 -475 479 0
478 -479 0
475 -479 0
-479 -470 480 0
479 -480 0
470 -480 0
459 481 0
-459 -481 0
-467 -481 482 0
467 -482 0
481 -482 0
-461 -460 483 0
461 -483 0
460 -483 0
-483 -462 484 0
483 -484 0
462 -484 0
-484 -482 485 0
484 -485 0
482 -485 0
485 486 0
-485 -486 0
-481 -466 487 0
481 -487 0
466 -487 0
-483 -472 488 0
483 -488 0
472 -488 0
-488 -487 489 0
488 -489 0
487 -489 0
489 490 0
-489 -490 0
-490 -486 491 0
490 -491 0
486 -491 0
-459 -466 492 0
459 -492 0
466 -492 0
-492 -488 493 0
492 -493 0
488 -493 0
493 494 0
-493 -494 0
-481 -457 495 0
481 -495 0
457 -495 0
-464 -471 496 0
464 -496 0
471 -496 0
-496 -495 497 0
496 -497 0
495 -497 0
497 498 0
-497 -498 0
-466 -457 499 0
466 -499 0
457 -499 0
499 500 0
-499 -500 0
-500 -498 501 0
500 -501 0
498 -501 0
-501 -494 502 0
501 -502 0
494 -502 0
-502 -491 503 0
502 -503 0
491 -503 0
-503 -480 504 0
503 -504 0
480 -504 0
504 505 0
-504 -505 0
-458 -465 506 0
458 -506 0
465 -506 0
-471 -481 507 0
471 -507 0
481 -507 0
-507 -506 508 0
507 -508 0
506 -508 0
-461 -471 509 0
461 -509 0
471 -509 0
-509 -482 510 0
509 -510 0
482 -510 0
510 511 0
-510 -511 0
-482 -464 512 0
482 -512 0
464 -512 0
512 513 0
-512 -513 0
-513 -511 514 0
513 -514 0
511 -514 0
514 515 0
-514 -515 0
-462 -464 516 0
462 -516 0
464 -516 0
-516 -499 517 0
516 -517 0
499 -517 0
517 518 0
-517 -518 0
-461 -457 519 0
461 -519 0
457 -519 0
-519 -472 520 0
519 -520 0
472 -520 0
520 521 0
-520 -521 0
-521 -518 522 0
521 -522 0
518 -522 0
-522 -494 523 0
522 -523 0
494 -523 0
-523 -478 524 0
523 -524 0
478 -524 0
524 525 0
-524 -525 0
-460 -459 526 0
460 -526 0
459 -526 0
-526 -520 527 0
526 -527 0
520 -527 0
527 528 0
-527 -528 0
-506 -464 529 0
506 -529 0
464 -529 0
529 530 0
-529 -530 0
-464 -458 531 0
464 -531 0
458 -531 0
-531 -462 532 0
531 -532 0
462 -532 0
532 533 0
-532 -533 0
-533 -530 534 0
533 -534 0
530 -534 0
-534 -528 535 0
534 -535 0
528 -535 0
535 536 0
-535 -536 0
-471 -459 537 0
471 -537 0
459 -537 0
-472 -461 538 0
472 -538 0
461 -538 0
-538 -537 539 0
538 -539 0
537 -539 0
539 540 0
-539 -540 0
-464 -459 541 0
464 -541 0
459 -541 0
-541 -462 542 0
541 -542 0
462 -542 0
542 543 0
-542 -543 0
-543 -540 544 0
543 -544 0
540 -544 0
-544 -470 545 0
544 -545 0
470 -545 0
-545 -491 546 0
545 -546 0
491 -546 0
546 547 0
-546 -547 0
-519 -473 548 0
519 -548 0
473 -548 0
548 549 0
-548 -549 0
-459 -465 550 0
459 -550 0
465 -550 0
-550 -516 551 0
550 -551 0
516 -551 0
551 552 0
-551 -552 0
-552 -549 553 0
552 -553 0
549 -553 0
-464 -460 554 0
464 -554 0
460 -554 0
-554 -462 555 0
554 -555 0
462 -555 0
555 556 0
-555 -556 0
-460 -465 557 0
460 -557 0
465 -557 0
-557 -464 558 0
557 -558 0
464 -558 0
558 559 0
-558 -559 0
-559 -556 560 0
559 -560 0
556 -560 0
-560 -553 561 0
560 -561 0
553 -561 0
-511 -486 562 0
511 -562 0
486 -562 0
-562 -561 563 0
562 -563 0
561 -563 0
563 564 0
-563 -564 0
-530 -518 565 0
530 -565 0
518 -565 0
-559 -543 566 0
559 -566 0
543 -566 0
-566 -565 567 0
566 -567 0
565 -567 0
-513 -475 568 0
513 -568 0
475 -568 0
-568 -567 569 0
568 -569 0
567 -569 0
569 570 0
-569 -570 0
-571 525 0
571 -525 0
-572 536 0
572 -536 0
-573 547 0
573 -547 0
-574 564 0
574 -564 0
-575 570 0
575 -570 0
-571 0
572 0
-573 0
-574 0
-575 0
-1 0
-2 0
-3 0
-4 0
-5 0
